n = 443;
rows = 934;
supports = [|
  {1},2..26,
 |{1},419..443,
 |{2},{1},
 |{2},3..27,
 |{2},420..443,
 |{3},1..2,
 |{3},4..28,
 |{3},421..443,
 |{4},1..3,
 |{4},5..29,
 |{4},422..443,
 |{5},1..4,
 |{5},6..30,
 |{5},423..443,
 |{6},1..5,
 |{6},7..31,
 |{6},424..443,
 |{7},1..6,
 |{7},8..32,
 |{7},425..443,
 |{8},1..7,
 |{8},9..33,
 |{8},426..443,
 |{9},1..8,
 |{9},10..34,
 |{9},427..443,
 |{10},1..9,
 |{10},11..35,
 |{10},428..443,
 |{11},1..10,
 |{11},12..36,
 |{11},429..443,
 |{12},1..11,
 |{12},13..37,
 |{12},430..443,
 |{13},1..12,
 |{13},14..38,
 |{13},431..443,
 |{14},1..13,
 |{14},15..39,
 |{14},432..443,
 |{15},1..14,
 |{15},16..40,
 |{15},433..443,
 |{16},1..15,
 |{16},17..41,
 |{16},434..443,
 |{17},1..16,
 |{17},18..42,
 |{17},435..443,
 |{18},1..17,
 |{18},19..43,
 |{18},436..443,
 |{19},1..18,
 |{19},20..44,
 |{19},437..443,
 |{20},1..19,
 |{20},21..45,
 |{20},438..443,
 |{21},1..20,
 |{21},22..46,
 |{21},439..443,
 |{22},1..21,
 |{22},23..47,
 |{22},440..443,
 |{23},1..22,
 |{23},24..48,
 |{23},441..443,
 |{24},1..23,
 |{24},25..49,
 |{24},442..443,
 |{25},1..24,
 |{25},26..50,
 |{25},{443},
 |{26},1..25,
 |{26},27..51,
 |{27},2..26,
 |{27},28..52,
 |{28},3..27,
 |{28},29..53,
 |{29},4..28,
 |{29},30..54,
 |{30},5..29,
 |{30},31..55,
 |{31},6..30,
 |{31},32..56,
 |{32},7..31,
 |{32},33..57,
 |{33},8..32,
 |{33},34..58,
 |{34},9..33,
 |{34},35..59,
 |{35},10..34,
 |{35},36..60,
 |{36},11..35,
 |{36},37..61,
 |{37},12..36,
 |{37},38..62,
 |{38},13..37,
 |{38},39..63,
 |{39},14..38,
 |{39},40..64,
 |{40},15..39,
 |{40},41..65,
 |{41},16..40,
 |{41},42..66,
 |{42},17..41,
 |{42},43..67,
 |{43},18..42,
 |{43},44..68,
 |{44},19..43,
 |{44},45..69,
 |{45},20..44,
 |{45},46..70,
 |{46},21..45,
 |{46},47..71,
 |{47},22..46,
 |{47},48..72,
 |{48},23..47,
 |{48},49..73,
 |{49},24..48,
 |{49},50..74,
 |{50},25..49,
 |{50},51..75,
 |{51},26..50,
 |{51},52..76,
 |{52},27..51,
 |{52},53..77,
 |{53},28..52,
 |{53},54..78,
 |{54},29..53,
 |{54},55..79,
 |{55},30..54,
 |{55},56..80,
 |{56},31..55,
 |{56},57..81,
 |{57},32..56,
 |{57},58..82,
 |{58},33..57,
 |{58},59..83,
 |{59},34..58,
 |{59},60..84,
 |{60},35..59,
 |{60},61..85,
 |{61},36..60,
 |{61},62..86,
 |{62},37..61,
 |{62},63..87,
 |{63},38..62,
 |{63},64..88,
 |{64},39..63,
 |{64},65..89,
 |{65},40..64,
 |{65},66..90,
 |{66},41..65,
 |{66},67..91,
 |{67},42..66,
 |{67},68..92,
 |{68},43..67,
 |{68},69..93,
 |{69},44..68,
 |{69},70..94,
 |{70},45..69,
 |{70},71..95,
 |{71},46..70,
 |{71},72..96,
 |{72},47..71,
 |{72},73..97,
 |{73},48..72,
 |{73},74..98,
 |{74},49..73,
 |{74},75..99,
 |{75},50..74,
 |{75},76..100,
 |{76},51..75,
 |{76},77..101,
 |{77},52..76,
 |{77},78..102,
 |{78},53..77,
 |{78},79..103,
 |{79},54..78,
 |{79},80..104,
 |{80},55..79,
 |{80},81..105,
 |{81},56..80,
 |{81},82..106,
 |{82},57..81,
 |{82},83..107,
 |{83},58..82,
 |{83},84..108,
 |{84},59..83,
 |{84},85..109,
 |{85},60..84,
 |{85},86..110,
 |{86},61..85,
 |{86},87..111,
 |{87},62..86,
 |{87},88..112,
 |{88},63..87,
 |{88},89..113,
 |{89},64..88,
 |{89},90..114,
 |{90},65..89,
 |{90},91..115,
 |{91},66..90,
 |{91},92..116,
 |{92},67..91,
 |{92},93..117,
 |{93},68..92,
 |{93},94..118,
 |{94},69..93,
 |{94},95..119,
 |{95},70..94,
 |{95},96..120,
 |{96},71..95,
 |{96},97..121,
 |{97},72..96,
 |{97},98..122,
 |{98},73..97,
 |{98},99..123,
 |{99},74..98,
 |{99},100..124,
 |{100},75..99,
 |{100},101..125,
 |{101},76..100,
 |{101},102..126,
 |{102},77..101,
 |{102},103..127,
 |{103},78..102,
 |{103},104..128,
 |{104},79..103,
 |{104},105..129,
 |{105},80..104,
 |{105},106..130,
 |{106},81..105,
 |{106},107..131,
 |{107},82..106,
 |{107},108..132,
 |{108},83..107,
 |{108},109..133,
 |{109},84..108,
 |{109},110..134,
 |{110},85..109,
 |{110},111..135,
 |{111},86..110,
 |{111},112..136,
 |{112},87..111,
 |{112},113..137,
 |{113},88..112,
 |{113},114..138,
 |{114},89..113,
 |{114},115..139,
 |{115},90..114,
 |{115},116..140,
 |{116},91..115,
 |{116},117..141,
 |{117},92..116,
 |{117},118..142,
 |{118},93..117,
 |{118},119..143,
 |{119},94..118,
 |{119},120..144,
 |{120},95..119,
 |{120},121..145,
 |{121},96..120,
 |{121},122..146,
 |{122},97..121,
 |{122},123..147,
 |{123},98..122,
 |{123},124..148,
 |{124},99..123,
 |{124},125..149,
 |{125},100..124,
 |{125},126..150,
 |{126},101..125,
 |{126},127..151,
 |{127},102..126,
 |{127},128..152,
 |{128},103..127,
 |{128},129..153,
 |{129},104..128,
 |{129},130..154,
 |{130},105..129,
 |{130},131..155,
 |{131},106..130,
 |{131},132..156,
 |{132},107..131,
 |{132},133..157,
 |{133},108..132,
 |{133},134..158,
 |{134},109..133,
 |{134},135..159,
 |{135},110..134,
 |{135},136..160,
 |{136},111..135,
 |{136},137..161,
 |{137},112..136,
 |{137},138..162,
 |{138},113..137,
 |{138},139..163,
 |{139},114..138,
 |{139},140..164,
 |{140},115..139,
 |{140},141..165,
 |{141},116..140,
 |{141},142..166,
 |{142},117..141,
 |{142},143..167,
 |{143},118..142,
 |{143},144..168,
 |{144},119..143,
 |{144},145..169,
 |{145},120..144,
 |{145},146..170,
 |{146},121..145,
 |{146},147..171,
 |{147},122..146,
 |{147},148..172,
 |{148},123..147,
 |{148},149..173,
 |{149},124..148,
 |{149},150..174,
 |{150},125..149,
 |{150},151..175,
 |{151},126..150,
 |{151},152..176,
 |{152},127..151,
 |{152},153..177,
 |{153},128..152,
 |{153},154..178,
 |{154},129..153,
 |{154},155..179,
 |{155},130..154,
 |{155},156..180,
 |{156},131..155,
 |{156},157..181,
 |{157},132..156,
 |{157},158..182,
 |{158},133..157,
 |{158},159..183,
 |{159},134..158,
 |{159},160..184,
 |{160},135..159,
 |{160},161..185,
 |{161},136..160,
 |{161},162..186,
 |{162},137..161,
 |{162},163..187,
 |{163},138..162,
 |{163},164..188,
 |{164},139..163,
 |{164},165..189,
 |{165},140..164,
 |{165},166..190,
 |{166},141..165,
 |{166},167..191,
 |{167},142..166,
 |{167},168..192,
 |{168},143..167,
 |{168},169..193,
 |{169},144..168,
 |{169},170..194,
 |{170},145..169,
 |{170},171..195,
 |{171},146..170,
 |{171},172..196,
 |{172},147..171,
 |{172},173..197,
 |{173},148..172,
 |{173},174..198,
 |{174},149..173,
 |{174},175..199,
 |{175},150..174,
 |{175},176..200,
 |{176},151..175,
 |{176},177..201,
 |{177},152..176,
 |{177},178..202,
 |{178},153..177,
 |{178},179..203,
 |{179},154..178,
 |{179},180..204,
 |{180},155..179,
 |{180},181..205,
 |{181},156..180,
 |{181},182..206,
 |{182},157..181,
 |{182},183..207,
 |{183},158..182,
 |{183},184..208,
 |{184},159..183,
 |{184},185..209,
 |{185},160..184,
 |{185},186..210,
 |{186},161..185,
 |{186},187..211,
 |{187},162..186,
 |{187},188..212,
 |{188},163..187,
 |{188},189..213,
 |{189},164..188,
 |{189},190..214,
 |{190},165..189,
 |{190},191..215,
 |{191},166..190,
 |{191},192..216,
 |{192},167..191,
 |{192},193..217,
 |{193},168..192,
 |{193},194..218,
 |{194},169..193,
 |{194},195..219,
 |{195},170..194,
 |{195},196..220,
 |{196},171..195,
 |{196},197..221,
 |{197},172..196,
 |{197},198..222,
 |{198},173..197,
 |{198},199..223,
 |{199},174..198,
 |{199},200..224,
 |{200},175..199,
 |{200},201..225,
 |{201},176..200,
 |{201},202..226,
 |{202},177..201,
 |{202},203..227,
 |{203},178..202,
 |{203},204..228,
 |{204},179..203,
 |{204},205..229,
 |{205},180..204,
 |{205},206..230,
 |{206},181..205,
 |{206},207..231,
 |{207},182..206,
 |{207},208..232,
 |{208},183..207,
 |{208},209..233,
 |{209},184..208,
 |{209},210..234,
 |{210},185..209,
 |{210},211..235,
 |{211},186..210,
 |{211},212..236,
 |{212},187..211,
 |{212},213..237,
 |{213},188..212,
 |{213},214..238,
 |{214},189..213,
 |{214},215..239,
 |{215},190..214,
 |{215},216..240,
 |{216},191..215,
 |{216},217..241,
 |{217},192..216,
 |{217},218..242,
 |{218},193..217,
 |{218},219..243,
 |{219},194..218,
 |{219},220..244,
 |{220},195..219,
 |{220},221..245,
 |{221},196..220,
 |{221},222..246,
 |{222},197..221,
 |{222},223..247,
 |{223},198..222,
 |{223},224..248,
 |{224},199..223,
 |{224},225..249,
 |{225},200..224,
 |{225},226..250,
 |{226},201..225,
 |{226},227..251,
 |{227},202..226,
 |{227},228..252,
 |{228},203..227,
 |{228},229..253,
 |{229},204..228,
 |{229},230..254,
 |{230},205..229,
 |{230},231..255,
 |{231},206..230,
 |{231},232..256,
 |{232},207..231,
 |{232},233..257,
 |{233},208..232,
 |{233},234..258,
 |{234},209..233,
 |{234},235..259,
 |{235},210..234,
 |{235},236..260,
 |{236},211..235,
 |{236},237..261,
 |{237},212..236,
 |{237},238..262,
 |{238},213..237,
 |{238},239..263,
 |{239},214..238,
 |{239},240..264,
 |{240},215..239,
 |{240},241..265,
 |{241},216..240,
 |{241},242..266,
 |{242},217..241,
 |{242},243..267,
 |{243},218..242,
 |{243},244..268,
 |{244},219..243,
 |{244},245..269,
 |{245},220..244,
 |{245},246..270,
 |{246},221..245,
 |{246},247..271,
 |{247},222..246,
 |{247},248..272,
 |{248},223..247,
 |{248},249..273,
 |{249},224..248,
 |{249},250..274,
 |{250},225..249,
 |{250},251..275,
 |{251},226..250,
 |{251},252..276,
 |{252},227..251,
 |{252},253..277,
 |{253},228..252,
 |{253},254..278,
 |{254},229..253,
 |{254},255..279,
 |{255},230..254,
 |{255},256..280,
 |{256},231..255,
 |{256},257..281,
 |{257},232..256,
 |{257},258..282,
 |{258},233..257,
 |{258},259..283,
 |{259},234..258,
 |{259},260..284,
 |{260},235..259,
 |{260},261..285,
 |{261},236..260,
 |{261},262..286,
 |{262},237..261,
 |{262},263..287,
 |{263},238..262,
 |{263},264..288,
 |{264},239..263,
 |{264},265..289,
 |{265},240..264,
 |{265},266..290,
 |{266},241..265,
 |{266},267..291,
 |{267},242..266,
 |{267},268..292,
 |{268},243..267,
 |{268},269..293,
 |{269},244..268,
 |{269},270..294,
 |{270},245..269,
 |{270},271..295,
 |{271},246..270,
 |{271},272..296,
 |{272},247..271,
 |{272},273..297,
 |{273},248..272,
 |{273},274..298,
 |{274},249..273,
 |{274},275..299,
 |{275},250..274,
 |{275},276..300,
 |{276},251..275,
 |{276},277..301,
 |{277},252..276,
 |{277},278..302,
 |{278},253..277,
 |{278},279..303,
 |{279},254..278,
 |{279},280..304,
 |{280},255..279,
 |{280},281..305,
 |{281},256..280,
 |{281},282..306,
 |{282},257..281,
 |{282},283..307,
 |{283},258..282,
 |{283},284..308,
 |{284},259..283,
 |{284},285..309,
 |{285},260..284,
 |{285},286..310,
 |{286},261..285,
 |{286},287..311,
 |{287},262..286,
 |{287},288..312,
 |{288},263..287,
 |{288},289..313,
 |{289},264..288,
 |{289},290..314,
 |{290},265..289,
 |{290},291..315,
 |{291},266..290,
 |{291},292..316,
 |{292},267..291,
 |{292},293..317,
 |{293},268..292,
 |{293},294..318,
 |{294},269..293,
 |{294},295..319,
 |{295},270..294,
 |{295},296..320,
 |{296},271..295,
 |{296},297..321,
 |{297},272..296,
 |{297},298..322,
 |{298},273..297,
 |{298},299..323,
 |{299},274..298,
 |{299},300..324,
 |{300},275..299,
 |{300},301..325,
 |{301},276..300,
 |{301},302..326,
 |{302},277..301,
 |{302},303..327,
 |{303},278..302,
 |{303},304..328,
 |{304},279..303,
 |{304},305..329,
 |{305},280..304,
 |{305},306..330,
 |{306},281..305,
 |{306},307..331,
 |{307},282..306,
 |{307},308..332,
 |{308},283..307,
 |{308},309..333,
 |{309},284..308,
 |{309},310..334,
 |{310},285..309,
 |{310},311..335,
 |{311},286..310,
 |{311},312..336,
 |{312},287..311,
 |{312},313..337,
 |{313},288..312,
 |{313},314..338,
 |{314},289..313,
 |{314},315..339,
 |{315},290..314,
 |{315},316..340,
 |{316},291..315,
 |{316},317..341,
 |{317},292..316,
 |{317},318..342,
 |{318},293..317,
 |{318},319..343,
 |{319},294..318,
 |{319},320..344,
 |{320},295..319,
 |{320},321..345,
 |{321},296..320,
 |{321},322..346,
 |{322},297..321,
 |{322},323..347,
 |{323},298..322,
 |{323},324..348,
 |{324},299..323,
 |{324},325..349,
 |{325},300..324,
 |{325},326..350,
 |{326},301..325,
 |{326},327..351,
 |{327},302..326,
 |{327},328..352,
 |{328},303..327,
 |{328},329..353,
 |{329},304..328,
 |{329},330..354,
 |{330},305..329,
 |{330},331..355,
 |{331},306..330,
 |{331},332..356,
 |{332},307..331,
 |{332},333..357,
 |{333},308..332,
 |{333},334..358,
 |{334},309..333,
 |{334},335..359,
 |{335},310..334,
 |{335},336..360,
 |{336},311..335,
 |{336},337..361,
 |{337},312..336,
 |{337},338..362,
 |{338},313..337,
 |{338},339..363,
 |{339},314..338,
 |{339},340..364,
 |{340},315..339,
 |{340},341..365,
 |{341},316..340,
 |{341},342..366,
 |{342},317..341,
 |{342},343..367,
 |{343},318..342,
 |{343},344..368,
 |{344},319..343,
 |{344},345..369,
 |{345},320..344,
 |{345},346..370,
 |{346},321..345,
 |{346},347..371,
 |{347},322..346,
 |{347},348..372,
 |{348},323..347,
 |{348},349..373,
 |{349},324..348,
 |{349},350..374,
 |{350},325..349,
 |{350},351..375,
 |{351},326..350,
 |{351},352..376,
 |{352},327..351,
 |{352},353..377,
 |{353},328..352,
 |{353},354..378,
 |{354},329..353,
 |{354},355..379,
 |{355},330..354,
 |{355},356..380,
 |{356},331..355,
 |{356},357..381,
 |{357},332..356,
 |{357},358..382,
 |{358},333..357,
 |{358},359..383,
 |{359},334..358,
 |{359},360..384,
 |{360},335..359,
 |{360},361..385,
 |{361},336..360,
 |{361},362..386,
 |{362},337..361,
 |{362},363..387,
 |{363},338..362,
 |{363},364..388,
 |{364},339..363,
 |{364},365..389,
 |{365},340..364,
 |{365},366..390,
 |{366},341..365,
 |{366},367..391,
 |{367},342..366,
 |{367},368..392,
 |{368},343..367,
 |{368},369..393,
 |{369},344..368,
 |{369},370..394,
 |{370},345..369,
 |{370},371..395,
 |{371},346..370,
 |{371},372..396,
 |{372},347..371,
 |{372},373..397,
 |{373},348..372,
 |{373},374..398,
 |{374},349..373,
 |{374},375..399,
 |{375},350..374,
 |{375},376..400,
 |{376},351..375,
 |{376},377..401,
 |{377},352..376,
 |{377},378..402,
 |{378},353..377,
 |{378},379..403,
 |{379},354..378,
 |{379},380..404,
 |{380},355..379,
 |{380},381..405,
 |{381},356..380,
 |{381},382..406,
 |{382},357..381,
 |{382},383..407,
 |{383},358..382,
 |{383},384..408,
 |{384},359..383,
 |{384},385..409,
 |{385},360..384,
 |{385},386..410,
 |{386},361..385,
 |{386},387..411,
 |{387},362..386,
 |{387},388..412,
 |{388},363..387,
 |{388},389..413,
 |{389},364..388,
 |{389},390..414,
 |{390},365..389,
 |{390},391..415,
 |{391},366..390,
 |{391},392..416,
 |{392},367..391,
 |{392},393..417,
 |{393},368..392,
 |{393},394..418,
 |{394},369..393,
 |{394},395..419,
 |{395},370..394,
 |{395},396..420,
 |{396},371..395,
 |{396},397..421,
 |{397},372..396,
 |{397},398..422,
 |{398},373..397,
 |{398},399..423,
 |{399},374..398,
 |{399},400..424,
 |{400},375..399,
 |{400},401..425,
 |{401},376..400,
 |{401},402..426,
 |{402},377..401,
 |{402},403..427,
 |{403},378..402,
 |{403},404..428,
 |{404},379..403,
 |{404},405..429,
 |{405},380..404,
 |{405},406..430,
 |{406},381..405,
 |{406},407..431,
 |{407},382..406,
 |{407},408..432,
 |{408},383..407,
 |{408},409..433,
 |{409},384..408,
 |{409},410..434,
 |{410},385..409,
 |{410},411..435,
 |{411},386..410,
 |{411},412..436,
 |{412},387..411,
 |{412},413..437,
 |{413},388..412,
 |{413},414..438,
 |{414},389..413,
 |{414},415..439,
 |{415},390..414,
 |{415},416..440,
 |{416},391..415,
 |{416},417..441,
 |{417},392..416,
 |{417},418..442,
 |{418},393..417,
 |{418},419..443,
 |{419},394..418,
 |{419},420..443,
 |{419},{1},
 |{420},395..419,
 |{420},421..443,
 |{420},1..2,
 |{421},396..420,
 |{421},422..443,
 |{421},1..3,
 |{422},397..421,
 |{422},423..443,
 |{422},1..4,
 |{423},398..422,
 |{423},424..443,
 |{423},1..5,
 |{424},399..423,
 |{424},425..443,
 |{424},1..6,
 |{425},400..424,
 |{425},426..443,
 |{425},1..7,
 |{426},401..425,
 |{426},427..443,
 |{426},1..8,
 |{427},402..426,
 |{427},428..443,
 |{427},1..9,
 |{428},403..427,
 |{428},429..443,
 |{428},1..10,
 |{429},404..428,
 |{429},430..443,
 |{429},1..11,
 |{430},405..429,
 |{430},431..443,
 |{430},1..12,
 |{431},406..430,
 |{431},432..443,
 |{431},1..13,
 |{432},407..431,
 |{432},433..443,
 |{432},1..14,
 |{433},408..432,
 |{433},434..443,
 |{433},1..15,
 |{434},409..433,
 |{434},435..443,
 |{434},1..16,
 |{435},410..434,
 |{435},436..443,
 |{435},1..17,
 |{436},411..435,
 |{436},437..443,
 |{436},1..18,
 |{437},412..436,
 |{437},438..443,
 |{437},1..19,
 |{438},413..437,
 |{438},439..443,
 |{438},1..20,
 |{439},414..438,
 |{439},440..443,
 |{439},1..21,
 |{440},415..439,
 |{440},441..443,
 |{440},1..22,
 |{441},416..440,
 |{441},442..443,
 |{441},1..23,
 |{442},417..441,
 |{442},{443},
 |{442},1..24,
 |{443},418..442,
 |{443},1..25 |];

t = 590;

indexes = [|
    0,18,
  | 0,27,
  | 0,308,
  | 1,166,
  | 1,202,
  | 1,298,
  | 2,40,
  | 2,60,
  | 2,135,
  | 2,272,
  | 3,135,
  | 4,291,
  | 5,12,
  | 6,15,
  | 6,44,
  | 6,139,
  | 6,153,
  | 7,70,
  | 7,129,
  | 7,413,
  | 8,12,
  | 8,293,
  | 9,76,
  | 9,212,
  | 9,249,
  | 9,398,
  | 10,148,
  | 10,157,
  | 10,379,
  | 11,168,
  | 11,218,
  | 11,357,
  | 12,43,
  | 12,84,
  | 12,96,
  | 12,140,
  | 12,195,
  | 13,62,
  | 13,115,
  | 14,296,
  | 15,251,
  | 16,94,
  | 16,100,
  | 16,229,
  | 16,244,
  | 16,306,
  | 17,60,
  | 17,351,
  | 17,384,
  | 17,392,
  | 18,140,
  | 18,282,
  | 18,431,
  | 19,253,
  | 19,314,
  | 19,356,
  | 19,419,
  | 20,65,
  | 20,125,
  | 21,87,
  | 21,94,
  | 21,400,
  | 22,54,
  | 22,343,
  | 23,201,
  | 23,294,
  | 23,374,
  | 24,46,
  | 24,210,
  | 24,237,
  | 24,358,
  | 25,133,
  | 25,398,
  | 26,50,
  | 26,292,
  | 26,393,
  | 27,87,
  | 27,327,
  | 28,55,
  | 28,89,
  | 28,170,
  | 29,56,
  | 29,260,
  | 29,286,
  | 30,379,
  | 31,108,
  | 31,273,
  | 32,173,
  | 32,242,
  | 33,123,
  | 33,141,
  | 33,183,
  | 33,211,
  | 33,414,
  | 33,420,
  | 33,428,
  | 34,245,
  | 34,255,
  | 34,373,
  | 34,385,
  | 35,213,
  | 35,351,
  | 36,158,
  | 36,366,
  | 37,146,
  | 37,293,
  | 38,72,
  | 38,303,
  | 38,356,
  | 38,358,
  | 39,261,
  | 40,252,
  | 41,53,
  | 41,175,
  | 41,205,
  | 42,58,
  | 42,203,
  | 42,226,
  | 42,317,
  | 42,404,
  | 43,104,
  | 43,236,
  | 43,294,
  | 43,307,
  | 44,296,
  | 45,229,
  | 45,255,
  | 45,412,
  | 45,439,
  | 47,125,
  | 47,286,
  | 48,49,
  | 48,68,
  | 48,77,
  | 49,415,
  | 50,278,
  | 50,309,
  | 51,361,
  | 51,389,
  | 52,119,
  | 52,424,
  | 54,280,
  | 55,153,
  | 56,152,
  | 56,198,
  | 56,200,
  | 56,279,
  | 56,295,
  | 56,369,
  | 56,372,
  | 57,96,
  | 57,256,
  | 57,290,
  | 57,397,
  | 58,174,
  | 58,317,
  | 59,191,
  | 59,373,
  | 60,362,
  | 60,406,
  | 61,156,
  | 61,189,
  | 61,374,
  | 61,402,
  | 62,217,
  | 63,239,
  | 63,341,
  | 63,392,
  | 64,152,
  | 64,281,
  | 64,336,
  | 65,186,
  | 65,221,
  | 65,421,
  | 66,77,
  | 66,194,
  | 67,213,
  | 67,336,
  | 68,91,
  | 68,155,
  | 68,159,
  | 68,236,
  | 69,155,
  | 69,293,
  | 69,407,
  | 71,273,
  | 71,321,
  | 71,365,
  | 72,102,
  | 72,192,
  | 72,267,
  | 72,282,
  | 72,285,
  | 72,314,
  | 72,426,
  | 73,283,
  | 73,298,
  | 74,154,
  | 74,240,
  | 74,245,
  | 75,91,
  | 75,141,
  | 76,89,
  | 76,249,
  | 78,293,
  | 79,310,
  | 79,318,
  | 79,341,
  | 80,109,
  | 80,110,
  | 80,118,
  | 80,156,
  | 80,185,
  | 81,277,
  | 82,339,
  | 83,253,
  | 83,272,
  | 85,189,
  | 85,197,
  | 86,270,
  | 87,319,
  | 88,170,
  | 88,219,
  | 89,408,
  | 90,101,
  | 90,144,
  | 90,208,
  | 90,219,
  | 91,155,
  | 91,187,
  | 91,193,
  | 91,227,
  | 91,366,
  | 91,425,
  | 92,181,
  | 92,318,
  | 92,360,
  | 92,437,
  | 93,238,
  | 93,400,
  | 95,370,
  | 96,211,
  | 96,391,
  | 97,147,
  | 97,173,
  | 98,203,
  | 98,276,
  | 98,412,
  | 99,190,
  | 99,377,
  | 100,306,
  | 101,180,
  | 101,208,
  | 101,224,
  | 101,286,
  | 102,192,
  | 102,246,
  | 102,259,
  | 102,282,
  | 102,431,
  | 103,315,
  | 103,411,
  | 104,106,
  | 104,137,
  | 104,164,
  | 104,212,
  | 104,294,
  | 105,228,
  | 105,380,
  | 105,442,
  | 107,139,
  | 108,236,
  | 109,110,
  | 110,266,
  | 110,387,
  | 111,159,
  | 111,390,
  | 112,131,
  | 112,429,
  | 113,279,
  | 113,421,
  | 114,355,
  | 115,172,
  | 116,162,
  | 116,288,
  | 116,376,
  | 117,145,
  | 117,384,
  | 119,361,
  | 119,386,
  | 119,389,
  | 120,355,
  | 121,130,
  | 121,388,
  | 122,419,
  | 124,262,
  | 124,278,
  | 124,364,
  | 125,268,
  | 126,160,
  | 126,271,
  | 127,165,
  | 128,367,
  | 129,427,
  | 130,184,
  | 132,301,
  | 132,350,
  | 133,405,
  | 134,430,
  | 135,179,
  | 136,161,
  | 138,194,
  | 138,418,
  | 139,221,
  | 141,187,
  | 141,374,
  | 141,418,
  | 142,183,
  | 143,330,
  | 143,366,
  | 144,180,
  | 144,208,
  | 145,209,
  | 145,384,
  | 146,176,
  | 146,316,
  | 147,266,
  | 148,214,
  | 148,284,
  | 148,379,
  | 149,190,
  | 150,237,
  | 150,400,
  | 150,427,
  | 151,269,
  | 152,170,
  | 153,219,
  | 153,221,
  | 154,290,
  | 154,293,
  | 154,311,
  | 154,346,
  | 155,236,
  | 158,172,
  | 158,334,
  | 158,366,
  | 159,325,
  | 159,333,
  | 160,176,
  | 160,298,
  | 160,346,
  | 161,332,
  | 161,434,
  | 163,196,
  | 165,188,
  | 165,189,
  | 165,197,
  | 165,199,
  | 165,275,
  | 165,313,
  | 165,374,
  | 166,280,
  | 166,388,
  | 167,217,
  | 167,334,
  | 168,230,
  | 168,307,
  | 168,337,
  | 168,391,
  | 169,374,
  | 170,212,
  | 170,323,
  | 170,358,
  | 171,335,
  | 171,357,
  | 172,401,
  | 174,349,
  | 175,236,
  | 175,316,
  | 176,236,
  | 176,240,
  | 176,244,
  | 176,331,
  | 176,363,
  | 176,405,
  | 177,198,
  | 178,384,
  | 178,406,
  | 180,208,
  | 181,437,
  | 182,299,
  | 183,207,
  | 183,211,
  | 183,297,
  | 183,435,
  | 184,429,
  | 184,438,
  | 186,196,
  | 190,204,
  | 190,377,
  | 190,383,
  | 191,254,
  | 193,366,
  | 197,241,
  | 198,200,
  | 198,279,
  | 198,372,
  | 199,355,
  | 200,228,
  | 200,234,
  | 200,348,
  | 202,256,
  | 203,226,
  | 204,222,
  | 204,258,
  | 204,377,
  | 204,383,
  | 206,289,
  | 207,355,
  | 208,382,
  | 209,340,
  | 209,368,
  | 211,278,
  | 212,237,
  | 213,239,
  | 213,336,
  | 213,358,
  | 213,434,
  | 215,380,
  | 216,321,
  | 216,401,
  | 217,236,
  | 220,229,
  | 222,239,
  | 223,374,
  | 223,402,
  | 224,286,
  | 225,418,
  | 226,412,
  | 227,321,
  | 229,271,
  | 229,385,
  | 229,439,
  | 230,235,
  | 230,266,
  | 230,396,
  | 230,438,
  | 231,337,
  | 232,367,
  | 232,371,
  | 233,301,
  | 233,350,
  | 234,338,
  | 235,350,
  | 235,403,
  | 236,331,
  | 237,294,
  | 237,358,
  | 239,318,
  | 239,351,
  | 241,395,
  | 242,324,
  | 243,304,
  | 247,260,
  | 248,379,
  | 250,336,
  | 252,419,
  | 254,349,
  | 255,349,
  | 256,423,
  | 257,346,
  | 257,378,
  | 258,318,
  | 258,416,
  | 260,417,
  | 261,288,
  | 261,376,
  | 262,312,
  | 262,322,
  | 263,371,
  | 264,300,
  | 265,393,
  | 265,433,
  | 266,355,
  | 266,387,
  | 267,285,
  | 267,362,
  | 268,286,
  | 269,398,
  | 270,374,
  | 270,399,
  | 272,354,
  | 272,430,
  | 274,419,
  | 276,320,
  | 276,404,
  | 277,360,
  | 278,284,
  | 278,293,
  | 278,423,
  | 279,295,
  | 279,299,
  | 281,369,
  | 282,303,
  | 282,426,
  | 282,431,
  | 284,325,
  | 285,310,
  | 286,323,
  | 286,369,
  | 287,353,
  | 288,334,
  | 289,322,
  | 289,379,
  | 291,298,
  | 291,333,
  | 292,364,
  | 293,302,
  | 293,363,
  | 293,407,
  | 298,333,
  | 298,344,
  | 299,300,
  | 299,421,
  | 301,350,
  | 301,359,
  | 302,325,
  | 302,394,
  | 303,314,
  | 304,324,
  | 304,343,
  | 304,429,
  | 305,409,
  | 306,398,
  | 306,410,
  | 306,415,
  | 309,312,
  | 310,351,
  | 310,354,
  | 310,362,
  | 310,406,
  | 311,345,
  | 314,419,
  | 315,343,
  | 318,341,
  | 318,360,
  | 318,416,
  | 326,354,
  | 328,339,
  | 329,357,
  | 329,389,
  | 335,357,
  | 335,441,
  | 337,357,
  | 339,384,
  | 339,406,
  | 341,372,
  | 342,396,
  | 345,397,
  | 346,347,
  | 348,380,
  | 349,404,
  | 350,389,
  | 350,396,
  | 352,386,
  | 352,424,
  | 353,357,
  | 353,436,
  | 354,381,
  | 356,358,
  | 357,389,
  | 357,441,
  | 358,427,
  | 358,434,
  | 359,424,
  | 361,371,
  | 362,430,
  | 365,425,
  | 367,370,
  | 370,389,
  | 375,437,
  | 389,432,
  | 397,422,
  | 398,400,
  | 400,409,
  | 404,412,
  | 411,423,
  | 411,433,
  | 419,440,
  | 422,423 |];

